output/friction_ilp.lp
Maximize
  1.0794913987657336e-04 Z_735_0_0 + 0.00304156522150737 Z_735_0_1
   + 0.8236964440185455 Z_735_0_2 + 0.00129495856135881 Z_735_0_3
   + 0.0718590830587119 Z_735_0_4 + 8.89575e-05 Z_710_0_0
   + 0.00225072755326279 Z_710_0_1 + 0.8548016280603771 Z_710_0_2
   + 0.0051614119010777 Z_710_0_3 + 0.0376972750008782 Z_710_0_4
   + 1.8057930919931344e-04 Z_133_0_0 + 0.00181701055346952 Z_133_0_1
   + 0.7272407825668868 Z_133_0_2 + 0.00180567533223292 Z_133_0_3
   + 0.1689559522382115 Z_133_0_4 + [ 0.4 Z_735_0_0 * Z_133_0_0
   + 0.4 Z_735_0_1 * Z_133_0_1 + 0.4 Z_735_0_2 * Z_133_0_2
   + 0.4 Z_735_0_3 * Z_133_0_3 ] / 2 
Subject To
 constraint1_7350: Z_735_0_0 + Z_735_0_1 + Z_735_0_2 + Z_735_0_3
   + Z_735_0_4 <= 1
 constraint1_7100: Z_710_0_0 + Z_710_0_1 + Z_710_0_2 + Z_710_0_3
   + Z_710_0_4 <= 1
 constraint1_1330: Z_133_0_0 + Z_133_0_1 + Z_133_0_2 + Z_133_0_3
   + Z_133_0_4 <= 1
 constraint2_7350: Z_735_0_0 <= 1
 constraint2_7351: Z_735_0_1 <= 1
 constraint2_7352: Z_735_0_2 <= 1
 constraint2_7353: Z_735_0_3 <= 1
 constraint2_7100: Z_710_0_0 <= 1
 constraint2_7101: Z_710_0_1 <= 1
 constraint2_7102: Z_710_0_2 <= 1
 constraint2_7103: Z_710_0_3 <= 1
 constraint2_1330: Z_133_0_0 <= 1
 constraint2_1331: Z_133_0_1 <= 1
 constraint2_1332: Z_133_0_2 <= 1
 constraint2_1333: Z_133_0_3 <= 1
Bounds
Binaries
 Z_735_0_0 Z_735_0_1 Z_735_0_2 Z_735_0_3 Z_735_0_4 Z_710_0_0 Z_710_0_1
 Z_710_0_2 Z_710_0_3 Z_710_0_4 Z_133_0_0 Z_133_0_1 Z_133_0_2 Z_133_0_3
 Z_133_0_4
End
