output/friction_ilp.sol
# Solution for model friction_srl_ilp
# Objective value = 2.6057388546458098e+00
Z_735_0_0 0
Z_735_0_1 0
Z_735_0_2 1
Z_735_0_3 0
Z_735_0_4 0
Z_710_0_0 0
Z_710_0_1 0
Z_710_0_2 1
Z_710_0_3 0
Z_710_0_4 0
Z_133_0_0 0
Z_133_0_1 0
Z_133_0_2 1
Z_133_0_3 0
Z_133_0_4 0
